Set parameter TokenServer to value "hpc-licenses.hpcc.usc.edu"
Set parameter TimeLimit to value 3600
Gurobi Optimizer version 9.5.1 build v9.5.1rc2 (linux64)
Thread count: 20 physical cores, 20 logical processors, using up to 20 threads
Optimize a model with 6007 rows, 4529 columns and 24534 nonzeros
Model fingerprint: 0x26a50592
Variable types: 4506 continuous, 23 integer (23 binary)
Coefficient statistics:
  Matrix range     [1e+00, 1e+00]
  Objective range  [3e-06, 1e+00]
  Bounds range     [1e+00, 1e+00]
  RHS range        [1e+00, 6e+01]
Presolve removed 1520 rows and 1515 columns
Presolve time: 0.17s
Presolved: 4487 rows, 3014 columns, 21975 nonzeros
Variable types: 2994 continuous, 20 integer (20 binary)
Found heuristic solution: objective 257.3453238
Found heuristic solution: objective 257.4791231

Root relaxation: objective 2.661740e+02, 1839 iterations, 0.05 seconds (0.07 work units)

    Nodes    |    Current Node    |     Objective Bounds      |     Work
 Expl Unexpl |  Obj  Depth IntInf | Incumbent    BestBd   Gap | It/Node Time

     0     0  266.17403    0    2  257.47912  266.17403  3.38%     -    0s
     0     0  265.88044    0    2  257.47912  265.88044  3.26%     -    0s
     0     0  265.70529    0    2  257.47912  265.70529  3.19%     -    0s
     0     0  265.68795    0    2  257.47912  265.68795  3.19%     -    0s
H    0     0                     260.4977192  265.68795  1.99%     -    0s
     0     0  265.44961    0    2  260.49772  265.44961  1.90%     -    0s
     0     0  265.21490    0    4  260.49772  265.21490  1.81%     -    0s
     0     0  265.20884    0    4  260.49772  265.20884  1.81%     -    0s
     0     0  265.20793    0    4  260.49772  265.20793  1.81%     -    0s
     0     0  264.49572    0    2  260.49772  264.49572  1.53%     -    0s
     0     0  264.22887    0    5  260.49772  264.22887  1.43%     -    0s
     0     0  264.22887    0    5  260.49772  264.22887  1.43%     -    0s
     0     0  264.22887    0    5  260.49772  264.22887  1.43%     -    0s
     0     0  264.22887    0    5  260.49772  264.22887  1.43%     -    0s
     0     0  264.22887    0    5  260.49772  264.22887  1.43%     -    0s
     0     0  264.22887    0    5  260.49772  264.22887  1.43%     -    0s
     0     0  264.22887    0    6  260.49772  264.22887  1.43%     -    0s
     0     0  264.22887    0    6  260.49772  264.22887  1.43%     -    0s
     0     0  264.22887    0    6  260.49772  264.22887  1.43%     -    0s
     0     0  264.22887    0    6  260.49772  264.22887  1.43%     -    0s
     0     0  264.22887    0    6  260.49772  264.22887  1.43%     -    0s
     0     0  264.22887    0    6  260.49772  264.22887  1.43%     -    0s
H    0     0                     263.5307391  264.22887  0.26%     -    1s
     0     0  264.21559    0    6  263.53074  264.21559  0.26%     -    1s
     0     0  264.21559    0    2  263.53074  264.21559  0.26%     -    1s
     0     0  264.21559    0    4  263.53074  264.21559  0.26%     -    1s
     0     0  264.21559    0    4  263.53074  264.21559  0.26%     -    2s
     0     0  264.13122    0    5  263.53074  264.13122  0.23%     -    2s
     0     0  264.13122    0    5  263.53074  264.13122  0.23%     -    2s
     0     0  264.13122    0    5  263.53074  264.13122  0.23%     -    2s
     0     0  264.13122    0    5  263.53074  264.13122  0.23%     -    2s
     0     0  264.13122    0    5  263.53074  264.13122  0.23%     -    2s
     0     0  264.13122    0    5  263.53074  264.13122  0.23%     -    2s
     0     0  264.13122    0    7  263.53074  264.13122  0.23%     -    2s
     0     0  264.13122    0    5  263.53074  264.13122  0.23%     -    2s
     0     0  264.13122    0    6  263.53074  264.13122  0.23%     -    2s
     0     0  264.13122    0    6  263.53074  264.13122  0.23%     -    2s
     0     0  263.53074    0    6  263.53074  263.53074  0.00%     -    2s

Cutting planes:
  Gomory: 7
  Implied bound: 12
  MIR: 267
  Flow cover: 18
  RLT: 7
  Relax-and-lift: 22

Explored 1 nodes (5397 simplex iterations) in 2.64 seconds (1.15 work units)
Thread count was 20 (of 20 available processors)

Solution count 4: 263.531 260.498 257.479 257.345 

Optimal solution found (tolerance 1.00e-04)
Best objective 2.635307391359e+02, best bound 2.635307391359e+02, gap 0.0000%



#########node  1
V1.9
#########node  2
0.0,1.0
#########node  3
0.9933035714285715,0.006696428571428492


Total Solving Time 3.067233085632324
obj value 263.5307391358691
Policy Regret train (Sum) 18.330847802036036
Best Treatment Found train (%) 39.4
treatment classification acc train (%) 43.0
Policy Regret test (Sum) 105.47520302296739
Best Treatment Found test (%) 66.02
treatment classification acc test (%) 42.199999999999996
